\ENCODING=ISO-8859-1
\Problem name: ilog.cplex

Minimize
 obj: 20 x11 + 24.0831891575846 x12 + 32.9848450049413 x13
      + 32.9848450049413 x14 + 42.7551166528639 x15 + 55.7135531087365 x16
      + 63.2455532033676 x17 + 61.1882341631134 x18 + 70.8801805866774 x19
      + 65.6048778674269 x20 + 72.1110255092798 x21 + 68 x22
      + 78.8923316932641 x23 + 20 x24 + 18.4390889145858 x25
      + 34.1760149812701 x26 + 42.5205832509386 x27 + 50.4777178564959 x28
      + 24.0831891575846 x29 + 18.4390889145858 x30 + 16.1245154965971 x31
      + 27.7848879788996 x32 + 33.9411254969543 x33 + 49.5176736125598 x34
      + 55.3172667437573 x35 + 50.4777178564959 x36 + 61.6116872029975 x37
      + 16.1245154965971 x38 + 16 x39 + 18.8679622641132 x40
      + 34.4093010681705 x41 + 39.5979797464467 x42 + 34.4093010681705 x43
      + 45.6070170039655 x44 + 32.9848450049413 x45 + 34.1760149812701 x46
      + 28.2842712474619 x47 + 37.9473319220206 x48 + 32.9848450049413 x49
      + 42.5205832509386 x50 + 27.7848879788996 x51 + 16 x52 + 10 x53
      + 23.3238075793812 x54 + 30.4630924234556 x55 + 42.7551166528639 x56
      + 50.4777178564959 x57 + 33.9411254969543 x58 + 18.8679622641132 x59
      + 10 x60 + 15.6204993518133 x61 + 21.6333076527839 x62
      + 18.4390889145858 x63 + 28.6356421265527 x64 + 23.3238075793812 x65
      + 15.6204993518133 x66 + 8 x67 + 11.3137084989848 x68 + 16 x69
      + 55.7135531087365 x70 + 65.6048778674269 x71 + 49.5176736125598 x72
      + 34.4093010681705 x73 + 63.2455532033676 x74 + 72.1110255092798 x75
      + 55.3172667437573 x76 + 39.5979797464467 x77 + 30.4630924234556 x78
      + 21.6333076527839 x79 + 8 x80 + 8 x81 + 8 x82 + 61.1882341631134 x83
      + 68 x84 + 50.4777178564959 x85 + 34.4093010681705 x86
      + 28.2842712474619 x87 + 18.4390889145858 x88 + 11.3137084989848 x89
      + 8 x90 + 11.3137084989848 x91 + 16 x92 + 8 x93 + 11.3137084989848 x94
      + 70.8801805866774 x95 + 78.8923316932641 x96 + 61.6116872029975 x97
      + 45.6070170039655 x98 + 37.9473319220206 x99 + 28.6356421265527 x100
Subject To
 c1:  x1  = 0
 c2:  x2  = 0
 c3:  x3  = 0
 c4:  x4  = 0
 c5:  x5  = 0
 c6:  x6  = 0
 c7:  x7  = 0
 c8:  x8  = 0
 c9:  x9  = 0
 c10: x10  = 0
 c11: x11 + x12 + x13 + x14 + x15 + x16 + x17 + x18 + x19  = 1
 c12: x20 + x21 + x22 + x23 + x24 + x25 + x26 + x27 + x28  = 1
 c13: x29 + x30 + x31 + x32 + x33 + x34 + x35 + x36 + x37  = 1
 c14: x38 + x39 + x40 + x41 + x42 + x43 + x44 + x45 + x46  = 1
 c15: x47 + x48 + x49 + x50 + x51 + x52 + x53 + x54 + x55  = 1
 c16: x56 + x57 + x58 + x59 + x60 + x61 + x62 + x63 + x64  = 1
 c17: x65 + x66 + x67 + x68 + x69 + x70 + x71 + x72 + x73  = 1
 c18: x74 + x75 + x76 + x77 + x78 + x79 + x80 + x81 + x82  = 1
 c19: x83 + x84 + x85 + x86 + x87 + x88 + x89 + x90 + x91  = 1
 c20: x92 + x93 + x94 + x95 + x96 + x97 + x98 + x99 + x100  = 1
 c21: x24 + x29 + x45 + x49 + x56 + x70 + x74 + x83 + x95  = 1
 c22: x11 + x30 + x46 + x50 + x57 + x71 + x75 + x84 + x96  = 1
 c23: x12 + x25 + x38 + x51 + x58 + x72 + x76 + x85 + x97  = 1
 c24: x13 + x26 + x31 + x52 + x59 + x73 + x77 + x86 + x98  = 1
 c25: x14 + x27 + x32 + x39 + x60 + x65 + x78 + x87 + x99  = 1
 c26: x15 + x28 + x33 + x40 + x53 + x66 + x79 + x88 + x100  = 1
 c27: x16 + x20 + x34 + x41 + x54 + x61 + x80 + x89 + x92  = 1
 c28: x17 + x21 + x35 + x42 + x55 + x62 + x67 + x90 + x93  = 1
 c29: x18 + x22 + x36 + x43 + x47 + x63 + x68 + x81 + x94  = 1
 c30: x19 + x23 + x37 + x44 + x48 + x64 + x69 + x82 + x91  = 1
 c31: x11 + x24 <= 1
 c32: x31 + x38 <= 1
 c33: x53 + x60 <= 1
 c34: x67 + x80 <= 1
 c35: x91 + x94 <= 1
 c36: x11 + x25 + x29 <= 2
 c37: x39 + x53 + x59 <= 2
 c38: x67 + x82 + x89 + x94 <= 3
 c39: x12 + x24 + x30 <= 2
 c40: x40 + x52 + x60 <= 2
 c41: x68 + x89 <= 1
 c42: x82 + x93 <= 1
 c43: x14 + x24 + x30 + x38 + x53 + x59 <= 5
 c44: x68 + x80 + x91 + x93 <= 3
 c45: x11 + x25 + x31 + x40 + x49 + x60 <= 5
 c46: x67 + x81 + x91 + x92 <= 3
 c47: x14 + x24 + x30 + x38 + x52 <= 4
 c48: x61 + x66 <= 1
 c49: x81 + x91 + x93 <= 2
 c50: x11 + x25 + x31 + x45 <= 3
 c51: x54 + x60 + x66 <= 2
 c52: x82 + x90 + x94 <= 2
 c53: x11 + x25 + x31 + x39 + x49 <= 4
 c54: x63 + x66 + x80 + x91 + x93 <= 4
 c55: x13 + x24 + x30 + x38 <= 3
 c56: x53 + x63 + x65 + x80 + x91 + x93 <= 5
 c57: x15 + x24 + x30 + x38 + x52 + x60 <= 5
 c58: x69 + x80 + x90 + x94 <= 3
 c59: x11 + x25 + x31 + x39 + x53 + x56 <= 5
 c60: x68 + x82 + x90 + x92 <= 3
 c61: x11 + x25 + x32 + x45 + x53 + x59 <= 5
 c62: x69 + x81 + x89 + x93 <= 3
 c63: x11 + x26 + x29 + x38 <= 3
 c64: x54 + x60 + x67 + x82 + x88 + x94 <= 5
Bounds
 0 <= x1 <= 1
 0 <= x2 <= 1
 0 <= x3 <= 1
 0 <= x4 <= 1
 0 <= x5 <= 1
 0 <= x6 <= 1
 0 <= x7 <= 1
 0 <= x8 <= 1
 0 <= x9 <= 1
 0 <= x10 <= 1
 0 <= x11 <= 1
 0 <= x12 <= 1
 0 <= x13 <= 1
 0 <= x14 <= 1
 0 <= x15 <= 1
 0 <= x16 <= 1
 0 <= x17 <= 1
 0 <= x18 <= 1
 0 <= x19 <= 1
 0 <= x20 <= 1
 0 <= x21 <= 1
 0 <= x22 <= 1
 0 <= x23 <= 1
 0 <= x24 <= 1
 0 <= x25 <= 1
 0 <= x26 <= 1
 0 <= x27 <= 1
 0 <= x28 <= 1
 0 <= x29 <= 1
 0 <= x30 <= 1
 0 <= x31 <= 1
 0 <= x32 <= 1
 0 <= x33 <= 1
 0 <= x34 <= 1
 0 <= x35 <= 1
 0 <= x36 <= 1
 0 <= x37 <= 1
 0 <= x38 <= 1
 0 <= x39 <= 1
 0 <= x40 <= 1
 0 <= x41 <= 1
 0 <= x42 <= 1
 0 <= x43 <= 1
 0 <= x44 <= 1
 0 <= x45 <= 1
 0 <= x46 <= 1
 0 <= x47 <= 1
 0 <= x48 <= 1
 0 <= x49 <= 1
 0 <= x50 <= 1
 0 <= x51 <= 1
 0 <= x52 <= 1
 0 <= x53 <= 1
 0 <= x54 <= 1
 0 <= x55 <= 1
 0 <= x56 <= 1
 0 <= x57 <= 1
 0 <= x58 <= 1
 0 <= x59 <= 1
 0 <= x60 <= 1
 0 <= x61 <= 1
 0 <= x62 <= 1
 0 <= x63 <= 1
 0 <= x64 <= 1
 0 <= x65 <= 1
 0 <= x66 <= 1
 0 <= x67 <= 1
 0 <= x68 <= 1
 0 <= x69 <= 1
 0 <= x70 <= 1
 0 <= x71 <= 1
 0 <= x72 <= 1
 0 <= x73 <= 1
 0 <= x74 <= 1
 0 <= x75 <= 1
 0 <= x76 <= 1
 0 <= x77 <= 1
 0 <= x78 <= 1
 0 <= x79 <= 1
 0 <= x80 <= 1
 0 <= x81 <= 1
 0 <= x82 <= 1
 0 <= x83 <= 1
 0 <= x84 <= 1
 0 <= x85 <= 1
 0 <= x86 <= 1
 0 <= x87 <= 1
 0 <= x88 <= 1
 0 <= x89 <= 1
 0 <= x90 <= 1
 0 <= x91 <= 1
 0 <= x92 <= 1
 0 <= x93 <= 1
 0 <= x94 <= 1
 0 <= x95 <= 1
 0 <= x96 <= 1
 0 <= x97 <= 1
 0 <= x98 <= 1
 0 <= x99 <= 1
 0 <= x100 <= 1
Binaries
 x1  x2  x3  x4  x5  x6  x7  x8  x9  x10  x11  x12  x13  x14  x15  x16  x17 
 x18  x19  x20  x21  x22  x23  x24  x25  x26  x27  x28  x29  x30  x31  x32 
 x33  x34  x35  x36  x37  x38  x39  x40  x41  x42  x43  x44  x45  x46  x47 
 x48  x49  x50  x51  x52  x53  x54  x55  x56  x57  x58  x59  x60  x61  x62 
 x63  x64  x65  x66  x67  x68  x69  x70  x71  x72  x73  x74  x75  x76  x77 
 x78  x79  x80  x81  x82  x83  x84  x85  x86  x87  x88  x89  x90  x91  x92 
 x93  x94  x95  x96  x97  x98  x99  x100 
End
